Name: Toy_UFES
Courses: 4  
Rooms: 3
Days: 5
Periods_per_day: 12
Curricula: 2
Fixed_classes: 2 
Constraints: 8 

COURSES:
SceCosC 1 Ocra 3 3 30			
ArcTec 1 Indaco 4 3 42
TecCos 2 Rosa Scarlatti 3 4 40
Geotec 1 Scarlatti 3 4 18 

ROOMS:
rA 32
rB 50
rC 40

CURRICULA:
Cur1 Mat 3 SceCosC ArcTec TecCos    
Cur2 Vesp 2 TecCos Geotec

FIXED_CLASSES:
Geotec 0 1
Geotec 2 1

UNAVAILABILITY_CONSTRAINTS:
TecCos 2 0		
TecCos 2 1
TecCos 3 2
TecCos 3 3
ArcTec 4 0
ArcTec 4 1
ArcTec 4 2
ArcTec 4 3

END.
